* ENCODING=ISO-8859-1
NAME          OpenStack VM placement
ROWS
 N  obj      
 E  c1       
 E  c2       
 E  c3       
 E  c4       
 G  c5       
 G  c6       
 L  c7       
 G  c8       
 G  c9       
 L  c10      
 G  c11      
 G  c12      
 L  c13      
 G  c14      
 G  c15      
 L  c16      
 G  c17      
 G  c18      
 L  c19      
 G  c20      
 G  c21      
 L  c22      
 G  c23      
 G  c24      
 L  c25      
 G  c26      
 G  c27      
 L  c28      
 G  c29      
 G  c30      
 L  c31      
 G  c32      
 G  c33      
 L  c34      
 G  c35      
 G  c36      
 L  c37      
 G  c38      
 G  c39      
 L  c40      
 G  c41      
 G  c42      
 L  c43      
 G  c44      
 G  c45      
 L  c46      
 G  c47      
 G  c48      
 L  c49      
 G  c50      
 G  c51      
 L  c52      
 G  c53      
 G  c54      
 L  c55      
 G  c56      
 G  c57      
 L  c58      
 G  c59      
 G  c60      
 L  c61      
 G  c62      
 G  c63      
 L  c64      
 G  c65      
 G  c66      
 L  c67      
 G  c68      
 G  c69      
 L  c70      
 G  c71      
 G  c72      
 L  c73      
 G  c74      
 G  c75      
 L  c76      
COLUMNS
    MARK0000  'MARKER'                 'INTORG'
    x_0_0      c1                               1
    x_0_0      c5                               1
    x_0_0      c7                               1
    x_0_0      c8                               1
    x_0_0      c10                              1
    x_0_0      c17                              1
    x_0_0      c19                              1
    x_0_0      c20                              1
    x_0_0      c22                              1
    x_0_0      c29                              1
    x_0_0      c31                              1
    x_0_0      c32                              1
    x_0_0      c34                              1
    x_0_1      obj                              1
    x_0_1      c1                               1
    x_0_1      c11                              1
    x_0_1      c13                              1
    x_0_1      c14                              1
    x_0_1      c16                              1
    x_0_1      c23                              1
    x_0_1      c25                              1
    x_0_1      c26                              1
    x_0_1      c28                              1
    x_0_1      c35                              1
    x_0_1      c37                              1
    x_0_1      c38                              1
    x_0_1      c40                              1
    x_1_0      obj                              2
    x_1_0      c2                               1
    x_1_0      c6                               1
    x_1_0      c7                               1
    x_1_0      c12                              1
    x_1_0      c13                              1
    x_1_0      c41                              1
    x_1_0      c43                              1
    x_1_0      c44                              1
    x_1_0      c46                              1
    x_1_0      c53                              1
    x_1_0      c55                              1
    x_1_0      c56                              1
    x_1_0      c58                              1
    x_1_1      obj                              3
    x_1_1      c2                               1
    x_1_1      c9                               1
    x_1_1      c10                              1
    x_1_1      c15                              1
    x_1_1      c16                              1
    x_1_1      c47                              1
    x_1_1      c49                              1
    x_1_1      c50                              1
    x_1_1      c52                              1
    x_1_1      c59                              1
    x_1_1      c61                              1
    x_1_1      c62                              1
    x_1_1      c64                              1
    x_2_0      obj                              4
    x_2_0      c3                               1
    x_2_0      c18                              1
    x_2_0      c19                              1
    x_2_0      c24                              1
    x_2_0      c25                              1
    x_2_0      c42                              1
    x_2_0      c43                              1
    x_2_0      c48                              1
    x_2_0      c49                              1
    x_2_0      c65                              1
    x_2_0      c67                              1
    x_2_0      c68                              1
    x_2_0      c70                              1
    x_2_1      obj                              5
    x_2_1      c3                               1
    x_2_1      c21                              1
    x_2_1      c22                              1
    x_2_1      c27                              1
    x_2_1      c28                              1
    x_2_1      c45                              1
    x_2_1      c46                              1
    x_2_1      c51                              1
    x_2_1      c52                              1
    x_2_1      c71                              1
    x_2_1      c73                              1
    x_2_1      c74                              1
    x_2_1      c76                              1
    x_3_0      obj                              6
    x_3_0      c4                               1
    x_3_0      c30                              1
    x_3_0      c31                              1
    x_3_0      c36                              1
    x_3_0      c37                              1
    x_3_0      c54                              1
    x_3_0      c55                              1
    x_3_0      c60                              1
    x_3_0      c61                              1
    x_3_0      c66                              1
    x_3_0      c67                              1
    x_3_0      c72                              1
    x_3_0      c73                              1
    x_3_1      obj                              7
    x_3_1      c4                               1
    x_3_1      c33                              1
    x_3_1      c34                              1
    x_3_1      c39                              1
    x_3_1      c40                              1
    x_3_1      c57                              1
    x_3_1      c58                              1
    x_3_1      c63                              1
    x_3_1      c64                              1
    x_3_1      c69                              1
    x_3_1      c70                              1
    x_3_1      c75                              1
    x_3_1      c76                              1
    y_0_1_0_0  obj                              8
    y_0_1_0_0  c5                              -1
    y_0_1_0_0  c6                              -1
    y_0_1_0_0  c7                              -1
    y_0_1_0_1  obj                              9
    y_0_1_0_1  c8                              -1
    y_0_1_0_1  c9                              -1
    y_0_1_0_1  c10                             -1
    y_0_1_1_0  obj                             10
    y_0_1_1_0  c11                             -1
    y_0_1_1_0  c12                             -1
    y_0_1_1_0  c13                             -1
    y_0_1_1_1  obj                             11
    y_0_1_1_1  c14                             -1
    y_0_1_1_1  c15                             -1
    y_0_1_1_1  c16                             -1
    y_0_2_0_0  obj                             12
    y_0_2_0_0  c17                             -1
    y_0_2_0_0  c18                             -1
    y_0_2_0_0  c19                             -1
    y_0_2_0_1  obj                             13
    y_0_2_0_1  c20                             -1
    y_0_2_0_1  c21                             -1
    y_0_2_0_1  c22                             -1
    y_0_2_1_0  obj                             14
    y_0_2_1_0  c23                             -1
    y_0_2_1_0  c24                             -1
    y_0_2_1_0  c25                             -1
    y_0_2_1_1  obj                             15
    y_0_2_1_1  c26                             -1
    y_0_2_1_1  c27                             -1
    y_0_2_1_1  c28                             -1
    y_0_3_0_0  obj                             16
    y_0_3_0_0  c29                             -1
    y_0_3_0_0  c30                             -1
    y_0_3_0_0  c31                             -1
    y_0_3_0_1  obj                             17
    y_0_3_0_1  c32                             -1
    y_0_3_0_1  c33                             -1
    y_0_3_0_1  c34                             -1
    y_0_3_1_0  obj                             18
    y_0_3_1_0  c35                             -1
    y_0_3_1_0  c36                             -1
    y_0_3_1_0  c37                             -1
    y_0_3_1_1  obj                             19
    y_0_3_1_1  c38                             -1
    y_0_3_1_1  c39                             -1
    y_0_3_1_1  c40                             -1
    y_1_2_0_0  obj                             20
    y_1_2_0_0  c41                             -1
    y_1_2_0_0  c42                             -1
    y_1_2_0_0  c43                             -1
    y_1_2_0_1  obj                             21
    y_1_2_0_1  c44                             -1
    y_1_2_0_1  c45                             -1
    y_1_2_0_1  c46                             -1
    y_1_2_1_0  obj                             22
    y_1_2_1_0  c47                             -1
    y_1_2_1_0  c48                             -1
    y_1_2_1_0  c49                             -1
    y_1_2_1_1  obj                             23
    y_1_2_1_1  c50                             -1
    y_1_2_1_1  c51                             -1
    y_1_2_1_1  c52                             -1
    y_1_3_0_0  obj                             24
    y_1_3_0_0  c53                             -1
    y_1_3_0_0  c54                             -1
    y_1_3_0_0  c55                             -1
    y_1_3_0_1  obj                             25
    y_1_3_0_1  c56                             -1
    y_1_3_0_1  c57                             -1
    y_1_3_0_1  c58                             -1
    y_1_3_1_0  obj                             26
    y_1_3_1_0  c59                             -1
    y_1_3_1_0  c60                             -1
    y_1_3_1_0  c61                             -1
    y_1_3_1_1  obj                             27
    y_1_3_1_1  c62                             -1
    y_1_3_1_1  c63                             -1
    y_1_3_1_1  c64                             -1
    y_2_3_0_0  obj                             28
    y_2_3_0_0  c65                             -1
    y_2_3_0_0  c66                             -1
    y_2_3_0_0  c67                             -1
    y_2_3_0_1  obj                             29
    y_2_3_0_1  c68                             -1
    y_2_3_0_1  c69                             -1
    y_2_3_0_1  c70                             -1
    y_2_3_1_0  obj                             30
    y_2_3_1_0  c71                             -1
    y_2_3_1_0  c72                             -1
    y_2_3_1_0  c73                             -1
    y_2_3_1_1  obj                             31
    y_2_3_1_1  c74                             -1
    y_2_3_1_1  c75                             -1
    y_2_3_1_1  c76                             -1
    MARK0001  'MARKER'                 'INTEND'
RHS
    rhs        c1                               1
    rhs        c2                               1
    rhs        c3                               1
    rhs        c4                               1
    rhs        c7                               1
    rhs        c10                              1
    rhs        c13                              1
    rhs        c16                              1
    rhs        c19                              1
    rhs        c22                              1
    rhs        c25                              1
    rhs        c28                              1
    rhs        c31                              1
    rhs        c34                              1
    rhs        c37                              1
    rhs        c40                              1
    rhs        c43                              1
    rhs        c46                              1
    rhs        c49                              1
    rhs        c52                              1
    rhs        c55                              1
    rhs        c58                              1
    rhs        c61                              1
    rhs        c64                              1
    rhs        c67                              1
    rhs        c70                              1
    rhs        c73                              1
    rhs        c76                              1
BOUNDS
 UP bnd        x_0_0                            1
 UP bnd        x_0_1                            1
 UP bnd        x_1_0                            1
 UP bnd        x_1_1                            1
 UP bnd        x_2_0                            1
 UP bnd        x_2_1                            1
 UP bnd        x_3_0                            1
 UP bnd        x_3_1                            1
 UP bnd        y_0_1_0_0                        1
 UP bnd        y_0_1_0_1                        1
 UP bnd        y_0_1_1_0                        1
 UP bnd        y_0_1_1_1                        1
 UP bnd        y_0_2_0_0                        1
 UP bnd        y_0_2_0_1                        1
 UP bnd        y_0_2_1_0                        1
 UP bnd        y_0_2_1_1                        1
 UP bnd        y_0_3_0_0                        1
 UP bnd        y_0_3_0_1                        1
 UP bnd        y_0_3_1_0                        1
 UP bnd        y_0_3_1_1                        1
 UP bnd        y_1_2_0_0                        1
 UP bnd        y_1_2_0_1                        1
 UP bnd        y_1_2_1_0                        1
 UP bnd        y_1_2_1_1                        1
 UP bnd        y_1_3_0_0                        1
 UP bnd        y_1_3_0_1                        1
 UP bnd        y_1_3_1_0                        1
 UP bnd        y_1_3_1_1                        1
 UP bnd        y_2_3_0_0                        1
 UP bnd        y_2_3_0_1                        1
 UP bnd        y_2_3_1_0                        1
 UP bnd        y_2_3_1_1                        1
ENDATA
